2023/05/23
Julia is now 1.9.0
previous version was 1.7.2
2023/11/29
gurobi is now 11.0.0
previous version was 10.0.2
solving instance transportation 2 4 sinabc3
presolving:
(round 1, fast)       4 del vars, 4 del conss, 0 add conss, 6 chg bounds, 0 chg sides, 0 chg coeffs, 0 upgd conss, 0 impls, 0 clqs
   (0.0s) symmetry computation started: requiring (bin +, int +, cont +), (fixed: bin -, int -, cont -)
   (0.0s) no symmetry present
presolving (2 rounds: 2 fast, 1 medium, 1 exhaustive):
 4 deleted vars, 4 deleted constraints, 0 added constraints, 6 tightened bounds, 0 added holes, 0 changed sides, 0 changed coefficients
 0 implications, 0 cliques
presolved problem has 8 variables (0 bin, 0 int, 0 impl, 8 cont) and 8 constraints
      4 constraints of type <linear>
      4 constraints of type <nonlinear>
Presolving Time: 0.00

 time | node  | left  |LP iter|LP it/n|mem/heur|mdpt |vars |cons |rows |cuts |sepa|confs|strbr|  dualbound   | primalbound  |  gap   | compl. 
  0.0s|     1 |     0 |    26 |     - |   888k |   0 |  20 |   8 |  40 |   0 |  0 |   0 |   0 | 6.846368e+01 |      --      |    Inf | unknown
L 0.0s|     1 |     0 |    26 |     - |  subnlp|   0 |  20 |   8 |  40 |   0 |  0 |   0 |   0 | 6.846368e+01 | 8.310830e+01 |  21.39%| unknown
  0.0s|     1 |     0 |    29 |     - |   890k |   0 |  20 |   8 |  42 |   2 |  1 |   0 |   0 | 6.888331e+01 | 8.310830e+01 |  20.65%| unknown
  0.0s|     1 |     0 |    29 |     - |   890k |   0 |  20 |   8 |  42 |   2 |  1 |   0 |   0 | 6.888331e+01 | 8.310830e+01 |  20.65%| unknown
  0.0s|     1 |     0 |    30 |     - |   890k |   0 |  20 |   8 |  43 |   3 |  2 |   0 |   0 | 6.892727e+01 | 8.310830e+01 |  20.57%| unknown
  0.0s|     1 |     0 |    62 |     - |   891k |   0 |  20 |   8 |  43 |   3 |  4 |   0 |   0 | 6.892727e+01 | 8.310830e+01 |  20.57%| unknown
  0.0s|     1 |     0 |    71 |     - |   906k |   0 |  20 |   8 |  47 |   7 |  5 |   0 |   0 | 7.636427e+01 | 8.310830e+01 |   8.83%| unknown
  0.0s|     1 |     0 |    73 |     - |   907k |   0 |  20 |   8 |  48 |   8 |  6 |   0 |   0 | 7.649197e+01 | 8.310830e+01 |   8.65%| unknown
  0.0s|     1 |     0 |    75 |     - |   909k |   0 |  20 |   8 |  49 |   9 |  7 |   0 |   0 | 7.660563e+01 | 8.310830e+01 |   8.49%| unknown
  0.0s|     1 |     0 |    76 |     - |   909k |   0 |  20 |   8 |  50 |  10 |  8 |   0 |   0 | 7.661309e+01 | 8.310830e+01 |   8.48%| unknown
  0.0s|     1 |     0 |    77 |     - |   917k |   0 |  20 |   8 |  51 |  11 |  9 |   0 |   0 | 7.661530e+01 | 8.310830e+01 |   8.47%| unknown
  0.0s|     1 |     0 |    78 |     - |   917k |   0 |  20 |   8 |  52 |  12 | 10 |   0 |   0 | 7.661568e+01 | 8.310830e+01 |   8.47%| unknown
  0.0s|     1 |     0 |    79 |     - |   919k |   0 |  20 |   8 |  53 |  13 | 11 |   0 |   0 | 7.661586e+01 | 8.310830e+01 |   8.47%| unknown
  0.0s|     1 |     0 |    80 |     - |   919k |   0 |  20 |   8 |  54 |  14 | 12 |   0 |   0 | 7.661586e+01 | 8.310830e+01 |   8.47%| unknown
  0.0s|     1 |     0 |    81 |     - |   919k |   0 |  20 |   8 |  31 |  15 | 13 |   0 |   0 | 7.661586e+01 | 8.310830e+01 |   8.47%| unknown
 time | node  | left  |LP iter|LP it/n|mem/heur|mdpt |vars |cons |rows |cuts |sepa|confs|strbr|  dualbound   | primalbound  |  gap   | compl. 
L 0.0s|     1 |     0 |    81 |     - |  subnlp|   0 |  20 |   8 |  31 |  15 | 15 |   0 |   0 | 7.661586e+01 | 8.310830e+01 |   8.47%| unknown
  0.1s|     1 |     0 |    81 |     - |   927k |   0 |  20 |   8 |  31 |  15 | 15 |   0 |   0 | 7.661586e+01 | 8.310830e+01 |   8.47%| unknown
  0.1s|     1 |     0 |    82 |     - |   927k |   0 |  20 |   8 |  33 |  17 | 17 |   0 |   0 | 7.661586e+01 | 8.310830e+01 |   8.47%| unknown
  0.1s|     1 |     0 |    84 |     - |   927k |   0 |  20 |   8 |  35 |  19 | 19 |   0 |   0 | 7.661588e+01 | 8.310830e+01 |   8.47%| unknown
  0.1s|     1 |     0 |    85 |     - |   927k |   0 |  20 |   8 |  36 |  20 | 21 |   0 |   0 | 7.661588e+01 | 8.310830e+01 |   8.47%| unknown
  0.1s|     1 |     2 |    85 |     - |   927k |   0 |  20 |   8 |  36 |  20 | 23 |   0 |   0 | 7.661588e+01 | 8.310830e+01 |   8.47%| unknown
L 0.1s|     4 |     3 |   160 |  35.7 |  subnlp|   2 |  20 |   8 |  60 |  83 |  7 |   0 |   0 | 8.226203e+01 | 8.310830e+01 |   1.03%|  77.54%
  0.2s|   100 |    35 |   239 |   1.9 |  1177k |  22 |  20 |   8 |  42 | 102 |  4 |   0 |   0 | 8.310740e+01 | 8.310830e+01 |   0.00%|  99.20%
  0.3s|   200 |    73 |   321 |   1.3 |  1295k |  25 |  20 |   8 |  48 | 113 |  4 |   0 |   0 | 8.310740e+01 | 8.310830e+01 |   0.00%|  99.81%
  0.3s|   300 |    99 |   379 |   1.1 |  1376k |  27 |  20 |   8 |  52 | 129 |  0 |   0 |   0 | 8.310768e+01 | 8.310830e+01 |   0.00%|  99.82%
  0.4s|   400 |   135 |   437 |   1.0 |  1447k |  27 |  20 |   9 |  40 | 135 |  4 |   1 |   0 | 8.310772e+01 | 8.310830e+01 |   0.00%|  99.83%
  0.4s|   500 |   129 |   472 |   0.8 |  1490k |  28 |  20 |  10 |  47 | 139 |  4 |   2 |   0 | 8.310791e+01 | 8.310830e+01 |   0.00%|  99.88%
  0.4s|   600 |   153 |   522 |   0.8 |  1583k |  28 |  20 |  10 |  42 | 142 |  4 |   2 |   0 | 8.310795e+01 | 8.310830e+01 |   0.00%|  99.93%
  0.5s|   700 |   135 |   562 |   0.7 |  1645k |  31 |  20 |  10 |   0 | 146 |  0 |   2 |   0 | 8.310803e+01 | 8.310830e+01 |   0.00%|  99.99%
  0.5s|   800 |   159 |   599 |   0.7 |  1702k |  31 |  20 |  10 |  43 | 149 |  4 |   2 |   0 | 8.310806e+01 | 8.310830e+01 |   0.00%|  99.99%
 time | node  | left  |LP iter|LP it/n|mem/heur|mdpt |vars |cons |rows |cuts |sepa|confs|strbr|  dualbound   | primalbound  |  gap   | compl. 
  0.5s|   900 |   169 |   651 |   0.7 |  1782k |  32 |  20 |  10 |   0 | 154 |  0 |   2 |   0 | 8.310808e+01 | 8.310830e+01 |   0.00%|  99.99%
  0.6s|  1000 |   193 |   692 |   0.6 |  1838k |  33 |  20 |  10 |   0 | 161 |  0 |   2 |   0 | 8.310810e+01 | 8.310830e+01 |   0.00%|  99.99%
  0.6s|  1100 |   199 |   730 |   0.6 |  1856k |  33 |  20 |  10 |   0 | 168 |  0 |   2 |   0 | 8.310812e+01 | 8.310830e+01 |   0.00%|  99.99%
  0.6s|  1200 |   209 |   762 |   0.6 |  1884k |  35 |  20 |  10 |  40 | 171 |  4 |   2 |   0 | 8.310813e+01 | 8.310830e+01 |   0.00%|  99.99%
  0.7s|  1300 |   223 |   795 |   0.6 |  1891k |  35 |  20 |  10 |  47 | 174 |  0 |   2 |   0 | 8.310814e+01 | 8.310830e+01 |   0.00%|  99.99%
  0.7s|  1400 |   233 |   842 |   0.6 |  1901k |  35 |  20 |  10 |  40 | 181 |  4 |   2 |   0 | 8.310816e+01 | 8.310830e+01 |   0.00%|  99.99%
  0.8s|  1500 |   251 |   870 |   0.5 |  1923k |  37 |  20 |  10 |   0 | 186 |  0 |   2 |   0 | 8.310816e+01 | 8.310830e+01 |   0.00%|  99.99%
  0.8s|  1600 |   281 |   931 |   0.5 |  2054k |  37 |  20 |  10 |  45 | 195 |  4 |   2 |   0 | 8.310817e+01 | 8.310830e+01 |   0.00%|  99.99%
  0.8s|  1700 |   285 |   947 |   0.5 |  2070k |  37 |  20 |  10 |  42 | 199 |  4 |   2 |   0 | 8.310818e+01 | 8.310830e+01 |   0.00%|  99.99%
  0.9s|  1800 |   293 |   975 |   0.5 |  2105k |  37 |  20 |  10 |   0 | 202 |  0 |   2 |   0 | 8.310819e+01 | 8.310830e+01 |   0.00%|  99.99%
  0.9s|  1900 |   303 |  1009 |   0.5 |  2116k |  37 |  20 |  10 |  45 | 212 |  4 |   2 |   0 | 8.310819e+01 | 8.310830e+01 |   0.00%|  99.99%
  0.9s|  2000 |   309 |  1040 |   0.5 |  2136k |  37 |  20 |  11 |  41 | 218 |  4 |   3 |   0 | 8.310820e+01 | 8.310830e+01 |   0.00%|  99.99%
  1.0s|  2100 |   317 |  1089 |   0.5 |  2216k |  37 |  20 |  11 |   0 | 226 |  0 |   3 |   0 | 8.310820e+01 | 8.310830e+01 |   0.00%|  99.99%
  1.0s|  2200 |   331 |  1142 |   0.5 |  2230k |  37 |  20 |  11 |   0 | 238 |  0 |   3 |   0 | 8.310821e+01 | 8.310830e+01 |   0.00%|  99.99%
  1.0s|  2300 |   339 |  1204 |   0.5 |  2236k |  37 |  20 |  11 |  45 | 260 |  4 |   3 |   0 | 8.310821e+01 | 8.310830e+01 |   0.00%|  99.99%
 time | node  | left  |LP iter|LP it/n|mem/heur|mdpt |vars |cons |rows |cuts |sepa|confs|strbr|  dualbound   | primalbound  |  gap   | compl. 
  1.1s|  2400 |   347 |  1242 |   0.5 |  2261k |  39 |  20 |  11 |  49 | 268 |  3 |   3 |   0 | 8.310821e+01 | 8.310830e+01 |   0.00%|  99.99%

SCIP Status        : solving was interrupted [gap limit reached]
Solving Time (sec) : 1.11
Solving Nodes      : 2498
Primal Bound       : +8.31082994806555e+01 (7 solutions)
Dual Bound         : +8.31082164981486e+01
Gap                : 0.00 %
primal_bound = 83.10829948065553, dual_bound = 83.10821649814856, gap = 9.984864025111037e-5, time = 4.15
